 200 68 
 33 98 88 46 40 23 91 72 82 51 8 52 
 37 16 23 56 9 98 80 55 57 57 60 94 
 24 42 83 40 88 6 25 19 70 91 98 29 
 25 40 65 97 60 12 23 17 82 85 13 64 
 72 25 100 44 71 83 35 82 55 9 44 1 
 68 57 93 89 99 9 56 33 
 61 
 1 2 3 4 5 6 7 8 10 11 12 13 
 14 15 16 17 18 19 20 21 22 23 25 26 
 27 28 29 30 31 32 33 34 36 37 38 39 
 41 42 43 44 45 46 47 48 49 51 52 53 
 55 56 57 58 60 61 62 63 64 65 66 67 
 68 
 40 
 1 3 6 7 9 15 16 17 20 21 22 23 
 24 26 27 28 29 30 32 35 37 38 39 40 
 43 44 46 48 49 51 52 53 55 56 60 61 
 62 63 66 68 
 57 
 1 2 3 4 5 6 9 10 11 12 13 14 
 15 16 17 18 19 21 23 24 25 26 27 28 
 29 30 31 32 33 35 36 37 38 39 40 41 
 42 43 45 46 47 48 49 50 51 52 53 54 
 56 59 61 62 63 64 66 67 68 
 24 
 2 4 5 6 10 16 17 27 29 30 31 36 
 39 41 42 46 48 49 52 56 60 61 62 66 
 12 
 5 8 11 12 15 24 32 34 39 43 50 62 
 25 
 2 5 7 8 12 15 19 21 22 24 25 29 
 35 37 40 43 44 47 53 54 56 59 61 63 
 65 
 48 
 1 2 4 5 7 9 12 13 15 16 17 19 
 20 21 23 24 26 27 28 29 30 33 34 36 
 37 38 41 42 43 44 45 47 48 51 52 53 
 54 56 57 60 61 62 63 64 65 66 67 68 
 9 
 10 13 15 22 27 39 54 60 63 
 43 
 1 2 4 5 6 7 8 10 12 14 19 20 
 23 24 25 26 28 29 31 35 36 37 39 40 
 41 42 43 44 46 47 48 49 51 52 55 57 
 58 60 61 62 65 66 68 
 18 
 15 16 17 27 28 29 30 34 36 38 46 47 
 49 55 63 64 66 67 
 62 
 1 2 3 4 6 7 8 9 10 11 12 13 
 14 16 17 18 20 21 22 23 24 25 26 27 
 28 29 30 31 32 33 34 35 36 37 38 39 
 40 41 42 43 44 46 48 49 50 51 52 53 
 54 55 57 58 59 60 61 62 63 64 65 66 
 67 68 
 20 
 1 2 8 10 14 20 26 31 38 39 40 42 
 44 45 50 52 54 55 61 63 
 16 
 2 10 11 14 15 17 19 20 21 22 24 37 
 40 45 46 48 
 12 
 5 11 22 27 31 32 50 57 59 63 65 66 
 28 
 6 7 8 10 12 13 15 18 20 25 26 27 
 31 33 35 36 37 42 43 44 48 49 52 53 
 58 62 64 68 
 29 
 2 4 5 9 12 14 15 17 22 24 25 27 
 28 30 31 34 38 45 46 51 52 55 56 57 
 58 62 65 66 68 
 33 
 2 3 5 6 13 17 18 19 20 23 24 27 
 30 32 33 35 36 37 38 39 43 44 46 49 
 50 51 57 60 62 63 65 67 68 
 46 
 1 3 4 5 6 7 9 11 12 13 14 16 
 18 19 22 23 24 26 29 32 33 34 36 38 
 39 40 41 43 44 46 47 48 50 51 54 55 
 57 59 61 62 63 64 65 66 67 68 
 9 
 3 26 33 35 48 52 53 58 68 
 41 
 2 4 5 6 9 10 11 12 13 14 15 16 
 17 19 21 22 24 30 31 32 33 36 37 38 
 39 42 43 44 45 46 47 48 50 51 54 57 
 58 62 63 64 67 
 20 
 2 14 16 20 21 26 29 30 31 33 38 41 
 44 46 47 52 60 62 64 66 
 33 
 2 3 5 6 7 8 14 15 18 19 20 24 
 25 26 31 33 37 38 39 40 41 43 44 46 
 51 53 54 55 58 60 61 64 67 
 68 
 1 2 3 4 5 6 7 8 9 10 11 12 
 13 14 15 16 17 18 19 20 21 22 23 24 
 25 26 27 28 29 30 31 32 33 34 35 36 
 37 38 39 40 41 42 43 44 45 46 47 48 
 49 50 51 52 53 54 55 56 57 58 59 60 
 61 62 63 64 65 66 67 68 
 62 
 3 4 5 6 7 8 9 11 13 14 15 16 
 17 19 20 21 23 24 25 26 27 28 29 30 
 31 32 33 34 35 36 37 38 39 40 41 42 
 43 44 45 46 47 48 49 50 51 52 53 54 
 55 56 57 58 59 60 61 62 63 64 65 66 
 67 68 
 44 
 2 3 5 8 9 10 13 17 19 20 22 23 
 24 25 26 27 28 29 30 31 32 35 37 42 
 43 44 45 46 47 49 51 53 54 55 56 57 
 58 59 60 62 63 66 67 68 
 20 
 2 6 9 11 17 24 27 32 33 38 40 46 
 47 48 50 51 55 56 67 68 
 63 
 1 3 4 5 6 7 8 9 11 13 14 15 
 16 17 18 19 20 21 22 23 24 25 26 27 
 28 29 30 31 32 33 34 35 36 37 38 39 
 40 41 42 43 44 45 46 47 48 49 50 51 
 52 53 54 55 56 57 58 60 61 62 63 64 
 66 67 68 
 38 
 1 2 4 5 7 8 11 13 14 18 21 22 
 23 24 25 26 27 28 29 30 33 34 35 37 
 40 41 42 43 44 46 47 48 51 53 57 59 
 67 68 
 49 
 1 2 4 5 7 8 9 10 11 12 13 15 
 16 17 19 20 21 22 23 26 28 29 30 31 
 35 36 37 39 41 42 43 44 45 48 49 50 
 51 52 54 55 56 57 59 61 62 65 66 67 
 68 
 12 
 1 9 22 32 36 37 38 48 51 55 62 67 
 20 
 2 4 9 12 13 15 17 18 20 23 27 28 
 35 46 55 57 59 63 67 68 
 31 
 6 13 14 15 16 22 23 24 28 30 31 32 
 33 35 41 43 44 46 47 48 50 52 53 55 
 56 57 58 61 62 63 64 
 68 
 1 2 3 4 5 6 7 8 9 10 11 12 
 13 14 15 16 17 18 19 20 21 22 23 24 
 25 26 27 28 29 30 31 32 33 34 35 36 
 37 38 39 40 41 42 43 44 45 46 47 48 
 49 50 51 52 53 54 55 56 57 58 59 60 
 61 62 63 64 65 66 67 68 
 52 
 1 2 3 4 5 6 7 8 9 10 12 13 
 16 18 20 21 23 24 27 28 29 30 33 35 
 36 37 39 40 41 42 43 45 46 47 48 49 
 52 53 54 55 56 57 58 59 60 61 62 64 
 65 66 67 68 
 10 
 1 19 32 42 44 45 49 50 53 59 
 35 
 1 2 5 13 14 16 17 18 20 21 25 27 
 28 30 31 34 35 38 39 40 44 45 50 51 
 52 54 57 58 59 61 62 63 64 65 66 
 35 
 3 4 7 13 15 16 17 18 19 23 24 25 
 27 28 29 31 32 33 37 40 42 46 49 50 
 53 56 57 59 61 62 63 64 66 67 68 
 34 
 2 4 8 10 11 12 13 14 15 16 17 18 
 23 27 29 34 36 38 39 40 45 46 47 49 
 51 54 55 56 58 60 62 63 65 68 
 44 
 1 2 3 6 7 8 10 11 13 14 15 16 
 18 19 20 21 23 24 26 29 30 31 32 34 
 36 40 41 42 43 44 46 47 48 49 50 51 
 54 55 58 60 62 63 64 65 
 58 
 1 2 3 4 5 6 7 8 10 11 12 14 
 16 17 18 19 20 21 22 25 26 27 28 29 
 30 31 32 33 34 35 36 37 38 39 40 41 
 42 43 45 46 47 48 49 50 52 53 54 55 
 56 57 59 61 62 63 64 65 66 68 
 4 
 3 6 9 50 
 16 
 1 4 8 17 21 23 24 27 32 36 37 43 
 46 47 48 49 
 52 
 1 3 5 6 7 8 9 10 14 15 16 17 
 19 21 22 23 24 25 26 27 28 29 30 32 
 33 35 36 37 38 39 41 42 43 45 46 47 
 49 50 51 54 55 56 57 58 59 62 63 64 
 65 66 67 68 
 40 
 1 2 4 5 6 8 9 10 12 13 14 16 
 19 20 21 22 24 27 30 31 32 34 35 40 
 41 45 46 47 50 51 54 55 59 61 62 64 
 65 66 67 68 
 26 
 6 8 12 13 17 18 27 28 29 31 34 35 
 38 40 45 46 47 48 51 53 58 59 60 63 
 66 68 
 8 
 10 15 18 31 33 38 58 60 
 33 
 1 2 3 6 7 8 13 14 18 21 25 26 
 27 28 33 35 38 39 41 43 44 46 47 53 
 54 55 58 59 61 62 63 64 65 
 59 
 1 2 3 4 6 7 8 9 10 11 12 13 
 14 15 17 18 19 20 21 23 24 25 26 27 
 28 29 30 31 32 35 36 37 38 39 40 41 
 42 43 44 45 46 47 48 49 50 51 52 53 
 55 56 57 59 60 62 63 65 66 67 68 
 66 
 1 2 3 4 5 6 7 8 9 10 11 12 
 13 14 15 16 17 18 19 20 21 23 24 25 
 26 27 28 29 30 31 32 33 34 35 36 37 
 38 39 40 41 42 43 44 45 46 47 48 49 
 50 51 53 54 55 56 57 58 59 60 61 62 
 63 64 65 66 67 68 
 63 
 1 3 4 5 6 7 8 9 10 11 12 13 
 14 16 17 18 19 20 21 22 23 24 25 26 
 27 28 29 30 31 32 33 34 35 36 37 38 
 39 40 42 43 44 45 46 47 48 49 50 51 
 52 53 54 55 56 57 59 60 61 62 63 64 
 65 66 68 
 4 
 22 32 37 40 
 6 
 18 26 27 30 53 55 
 12 
 1 2 12 13 16 18 30 42 45 46 57 63 
 13 
 6 9 14 16 17 18 25 28 35 55 58 60 
 68 
 50 
 2 5 6 7 8 9 10 11 13 15 16 17 
 18 19 20 22 23 24 25 26 27 29 30 33 
 34 35 36 37 39 40 41 42 46 47 48 49 
 50 51 53 54 55 56 57 58 60 62 64 65 
 67 68 
 62 
 1 2 3 4 5 6 7 8 9 10 11 12 
 13 14 15 16 17 18 19 20 21 22 24 25 
 27 28 29 30 31 32 33 34 35 36 37 38 
 39 40 41 42 43 44 46 47 48 49 50 51 
 53 56 57 58 59 60 61 62 63 64 65 66 
 67 68 
 44 
 2 3 4 6 7 8 10 11 12 13 14 16 
 17 18 20 21 23 24 25 27 30 31 32 33 
 35 36 37 39 40 42 43 45 46 48 51 52 
 54 56 57 60 61 62 65 66 
 52 
 1 2 3 4 6 7 8 9 10 11 13 14 
 15 16 17 18 19 20 21 22 25 26 27 29 
 31 32 35 36 38 39 40 41 42 43 45 46 
 47 48 49 50 52 55 56 58 59 60 61 63 
 65 66 67 68 
 40 
 1 2 3 4 6 9 11 14 18 19 21 23 
 25 29 30 31 33 34 37 40 42 43 44 45 
 49 50 51 52 53 54 56 58 59 60 61 62 
 63 64 66 68 
 42 
 1 5 7 8 9 10 11 13 14 16 17 19 
 20 21 22 23 26 27 28 30 31 32 35 36 
 37 38 42 43 45 46 52 54 55 56 58 60 
 63 64 65 66 67 68 
 12 
 7 10 12 13 27 48 55 59 62 63 66 67 
 10 
 4 7 17 22 29 42 45 48 57 64 
 59 
 1 2 3 4 5 6 7 8 9 10 11 12 
 13 14 16 17 19 20 21 22 24 25 26 27 
 28 29 30 31 32 33 34 35 36 37 38 39 
 40 41 45 46 47 48 49 50 52 53 54 55 
 56 57 58 59 60 61 64 65 66 67 68 
 30 
 1 2 4 7 9 15 16 20 21 22 23 26 
 28 38 40 42 43 45 47 49 52 53 57 58 
 60 61 62 63 64 67 
 28 
 1 2 13 14 15 16 17 18 20 24 26 30 
 31 32 35 37 42 43 46 48 50 51 52 54 
 55 58 63 67 
 7 
 1 7 15 25 27 59 60 
 39 
 3 4 6 8 9 10 11 13 14 15 16 17 
 18 21 22 23 25 26 27 30 31 32 35 36 
 39 41 42 43 44 46 48 49 52 55 58 61 
 62 63 68 
 16 
 1 16 18 22 25 26 34 39 40 44 45 48 
 50 57 59 65 
 18 
 6 11 14 16 22 26 27 32 42 45 49 50 
 51 54 57 58 59 63 
 13 
 4 5 10 24 26 27 28 32 48 49 56 63 
 66 
 21 
 5 6 9 10 11 14 20 22 24 28 29 31 
 37 40 53 54 56 58 59 66 67 
 15 
 1 3 5 6 11 13 14 21 22 28 35 38 
 42 43 49 
 3 
 15 44 68 
 11 
 5 17 18 25 28 35 37 42 45 51 60 
 56 
 1 2 3 4 5 6 7 8 9 10 11 12 
 13 15 18 19 20 21 22 23 25 26 28 29 
 30 31 32 34 35 36 37 39 40 42 43 45 
 46 47 48 49 50 51 52 54 56 57 58 59 
 60 61 62 63 65 66 67 68 
 24 
 2 4 6 7 8 10 14 20 22 27 31 34 
 36 40 42 48 49 52 54 57 59 61 62 67 
 61 
 1 3 5 6 7 8 9 10 11 14 15 16 
 17 18 19 20 21 22 23 24 26 27 28 29 
 30 31 32 33 34 35 36 37 38 39 40 41 
 42 43 45 46 47 48 49 50 51 52 53 54 
 55 56 57 58 59 60 61 62 63 65 66 67 
 68 
 31 
 2 12 13 15 18 19 22 29 30 31 33 36 
 37 39 40 43 47 48 50 51 52 53 54 55 
 56 57 59 61 63 64 68 
 48 
 2 3 5 7 9 10 12 13 14 15 16 17 
 19 20 22 23 24 25 28 29 31 32 33 34 
 37 38 41 42 43 44 45 47 48 49 50 51 
 52 53 55 56 57 58 59 60 61 62 65 66 
 48 
 1 2 5 6 7 8 9 10 13 14 16 18 
 19 21 22 23 25 26 27 28 29 30 31 32 
 33 34 36 37 39 42 43 44 45 46 47 48 
 49 50 52 53 54 57 58 59 61 64 65 67 
 39 
 1 2 4 7 8 9 10 12 14 15 16 18 
 19 20 21 22 28 31 35 36 37 38 40 41 
 42 43 44 45 47 48 55 57 59 62 63 64 
 65 66 67 
 56 
 1 2 3 5 6 7 8 9 10 12 13 14 
 15 16 17 19 20 21 22 25 26 27 28 29 
 30 31 32 33 34 35 37 38 40 41 42 43 
 44 46 47 49 50 51 52 53 55 57 59 60 
 61 62 63 64 65 66 67 68 
 20 
 1 2 5 10 15 16 21 22 35 36 40 53 
 55 56 57 58 60 62 66 67 
 7 
 15 28 38 44 49 52 62 
 20 
 1 8 9 12 15 17 20 22 26 30 32 37 
 51 55 56 58 61 62 63 66 
 8 
 12 28 30 33 44 51 52 63 
 50 
 2 3 4 6 7 8 10 12 13 15 17 18 
 19 23 24 25 26 27 28 29 30 31 33 34 
 35 36 37 38 39 40 41 42 43 44 46 47 
 48 50 51 52 53 54 56 57 58 60 61 64 
 66 68 
 21 
 1 3 6 16 22 25 26 29 30 31 39 43 
 44 48 50 53 54 57 63 66 67 
 20 
 3 4 9 12 14 20 31 35 36 38 39 42 
 47 54 57 59 61 65 67 68 
 19 
 1 5 7 10 13 17 19 20 28 31 37 38 
 41 47 48 49 51 54 66 
 64 
 1 2 3 4 5 6 8 9 10 11 12 13 
 14 15 16 17 18 19 20 21 22 23 24 25 
 26 27 28 29 31 32 33 34 35 36 37 38 
 39 40 41 42 43 44 45 46 48 49 50 51 
 52 53 54 56 57 58 59 60 61 62 63 64 
 65 66 67 68 
 50 
 2 4 6 7 8 10 11 12 13 14 15 16 
 17 18 20 21 24 27 28 29 30 32 34 35 
 36 37 39 41 42 44 45 46 47 48 49 50 
 51 52 53 55 56 57 58 59 60 61 62 65 
 67 68 
 25 
 7 9 12 21 22 23 27 29 31 34 35 37 
 39 40 41 44 45 46 48 51 52 56 57 60 
 65 
 51 
 1 2 3 6 7 8 10 11 13 15 16 17 
 18 19 20 21 23 24 25 27 28 29 30 31 
 32 34 37 39 40 41 43 44 45 46 48 50 
 51 52 53 54 55 56 57 59 60 61 63 64 
 66 67 68 
 49 
 3 4 5 8 10 11 12 13 15 17 18 19 
 21 22 23 25 26 27 28 29 32 35 36 38 
 39 40 41 42 43 45 46 47 49 50 52 53 
 54 55 56 57 58 60 62 63 64 65 66 67 
 68 
 32 
 1 3 4 10 14 16 17 20 22 26 27 28 
 30 31 34 37 38 39 43 47 49 51 52 54 
 55 57 58 60 62 64 66 68 
 29 
 4 6 7 10 15 18 21 24 26 27 28 29 
 36 37 38 39 41 43 44 47 49 50 54 55 
 59 63 64 66 67 
 42 
 1 4 5 8 10 12 13 16 17 19 22 23 
 25 26 27 30 31 32 33 34 35 37 41 42 
 44 45 47 48 49 52 53 54 55 56 57 58 
 59 62 64 66 67 68 
 18 
 1 14 16 17 20 24 26 27 28 30 39 42 
 43 45 47 50 54 65 
 12 
 1 13 16 22 28 34 37 44 53 55 57 68 
 17 
 1 2 8 14 16 21 23 28 35 42 49 53 
 54 55 57 59 67 
 4 
 22 37 42 48 
 67 
 1 2 3 4 5 6 7 8 9 10 11 12 
 13 14 15 16 17 18 19 20 21 22 23 24 
 25 26 27 28 29 30 31 32 33 34 35 36 
 37 38 39 40 41 42 43 44 45 46 47 48 
 49 50 51 52 53 54 55 56 57 58 59 60 
 61 62 63 65 66 67 68 
 38 
 2 3 4 8 16 17 19 21 22 26 28 29 
 30 31 32 36 39 43 44 45 48 49 50 51 
 52 54 55 56 57 58 59 61 62 63 64 65 
 66 68 
 68 
 1 2 3 4 5 6 7 8 9 10 11 12 
 13 14 15 16 17 18 19 20 21 22 23 24 
 25 26 27 28 29 30 31 32 33 34 35 36 
 37 38 39 40 41 42 43 44 45 46 47 48 
 49 50 51 52 53 54 55 56 57 58 59 60 
 61 62 63 64 65 66 67 68 
 44 
 1 2 6 8 10 12 14 15 16 17 18 19 
 20 21 23 25 26 28 30 31 32 33 34 36 
 37 38 40 41 43 44 45 46 47 49 50 52 
 57 58 59 60 61 62 63 67 
 66 
 1 2 3 5 6 7 8 9 10 11 12 13 
 14 16 17 18 19 20 21 22 23 24 25 26 
 27 28 29 30 31 32 33 34 35 36 37 38 
 39 40 41 42 43 44 45 46 47 48 49 50 
 51 52 53 54 55 56 57 58 59 60 61 62 
 63 64 65 66 67 68 
 50 
 1 2 3 4 7 8 9 10 11 12 13 15 
 16 18 19 21 22 23 25 27 28 29 30 31 
 32 33 34 37 40 41 43 44 45 47 49 50 
 51 52 53 54 55 56 57 59 60 61 62 63 
 64 68 
 47 
 1 2 3 4 5 6 7 8 9 10 11 12 
 13 14 15 18 19 21 22 23 24 25 27 28 
 29 30 31 32 33 34 37 38 39 42 44 47 
 49 50 52 54 56 57 58 62 64 66 68 
 54 
 1 2 3 4 5 6 7 9 10 12 13 14 
 17 18 19 20 22 23 24 25 27 29 30 31 
 32 34 35 36 37 38 39 40 41 42 43 44 
 45 46 47 48 52 53 54 55 56 57 58 60 
 61 63 65 66 67 68 
 13 
 4 8 13 17 22 33 42 54 57 61 62 66 
 67 
 14 
 6 9 15 16 22 44 46 47 50 53 57 60 
 61 68 
 15 
 6 10 14 16 26 28 34 37 38 39 50 53 
 54 61 63 
 25 
 1 2 3 6 14 15 19 20 21 27 28 29 
 31 33 38 44 48 49 55 56 62 64 65 66 
 67 
 14 
 5 9 11 28 29 33 35 39 40 44 45 49 
 57 65 
 46 
 2 3 7 8 9 14 15 17 19 20 22 24 
 25 26 27 28 30 31 33 34 35 36 37 38 
 39 42 43 44 45 46 47 48 49 51 52 53 
 54 55 56 59 60 61 62 64 66 68 
 10 
 10 12 31 37 47 49 51 55 61 65 
 36 
 1 3 4 6 7 8 11 12 13 14 15 17 
 21 24 26 27 30 32 34 36 37 38 40 42 
 43 45 50 51 52 53 55 58 61 62 63 65 
 15 
 12 19 21 26 27 30 41 44 48 49 57 58 
 64 66 67 
 67 
 1 2 3 4 5 6 7 8 9 11 12 13 
 14 15 16 17 18 19 20 21 22 23 24 25 
 26 27 28 29 30 31 32 33 34 35 36 37 
 38 39 40 41 42 43 44 45 46 47 48 49 
 50 51 52 53 54 55 56 57 58 59 60 61 
 62 63 64 65 66 67 68 
 19 
 3 5 9 17 18 23 24 27 28 43 46 48 
 49 52 54 56 57 62 64 
 63 
 1 3 4 5 6 8 9 10 11 12 13 14 
 15 16 17 18 19 20 21 22 23 24 25 26 
 27 28 30 31 32 33 34 35 36 37 38 39 
 40 41 42 43 44 45 46 47 48 50 51 53 
 54 55 56 57 58 59 60 61 62 63 64 65 
 66 67 68 
 33 
 3 9 10 14 15 16 18 19 23 27 28 31 
 32 34 39 40 41 42 44 46 47 50 51 52 
 53 55 56 58 59 64 65 66 67 
 38 
 3 6 7 8 9 10 11 14 15 16 17 18 
 19 20 21 23 25 28 29 30 31 32 33 36 
 38 40 41 42 43 46 47 48 52 53 57 61 
 65 67 
 7 
 6 11 15 43 44 51 57 
 52 
 1 3 4 5 6 7 8 9 11 13 14 15 
 16 17 19 21 22 23 24 25 27 28 29 30 
 31 32 33 34 36 37 39 40 41 42 44 45 
 46 48 49 50 53 54 55 56 57 58 59 61 
 63 65 66 68 
 67 
 1 2 3 4 5 6 7 8 9 10 11 12 
 13 14 15 16 17 18 19 20 21 22 23 24 
 25 26 27 28 29 30 31 33 34 35 36 37 
 38 39 40 41 42 43 44 45 46 47 48 49 
 50 51 52 53 54 55 56 57 58 59 60 61 
 62 63 64 65 66 67 68 
 3 
 34 40 60 
 10 
 13 15 23 26 32 38 41 48 63 66 
 38 
 1 2 3 5 7 8 10 15 16 17 18 20 
 22 23 24 27 28 29 30 31 35 36 38 39 
 41 42 45 47 53 55 56 57 59 63 64 66 
 67 68 
 27 
 2 3 4 8 14 19 20 27 30 31 35 36 
 37 39 41 43 44 47 50 51 53 55 56 57 
 63 67 68 
 56 
 1 2 3 4 5 6 7 8 12 13 15 18 
 19 20 21 24 25 27 28 29 30 31 33 34 
 35 36 37 38 39 40 41 42 43 44 45 46 
 47 48 49 50 51 52 53 54 55 56 57 58 
 59 61 62 63 64 65 66 67 
 4 
 15 25 26 53 
 40 
 1 3 4 5 6 8 9 10 12 14 16 17 
 18 20 21 22 24 25 28 32 34 35 37 39 
 40 42 44 46 48 49 52 53 54 59 61 62 
 63 64 67 68 
 31 
 1 11 13 14 15 16 19 20 21 24 25 27 
 28 32 33 37 42 43 45 46 49 50 51 52 
 53 54 56 58 61 62 67 
 40 
 1 2 3 5 6 7 8 10 11 13 14 16 
 19 20 22 23 24 25 29 32 33 35 36 37 
 38 39 40 41 44 45 51 53 56 58 59 61 
 62 65 66 68 
 15 
 9 15 20 21 25 26 30 33 34 39 40 45 
 53 61 64 
 16 
 1 8 9 11 18 21 27 28 29 32 44 54 
 57 59 64 67 
 50 
 1 2 3 4 5 7 8 10 11 12 13 14 
 15 17 18 20 21 22 23 24 25 27 28 29 
 31 33 34 35 37 38 39 40 43 45 46 47 
 49 50 51 52 53 56 57 59 60 62 63 64 
 65 68 
 33 
 2 5 6 9 10 12 14 15 16 18 19 20 
 23 27 29 31 34 37 42 47 48 49 51 56 
 57 58 59 60 64 65 66 67 68 
 39 
 1 3 6 8 10 12 13 14 15 16 17 19 
 23 25 26 28 29 30 31 33 34 37 40 43 
 45 46 48 49 53 54 56 57 58 60 61 62 
 65 67 68 
 52 
 1 2 3 4 5 6 8 9 10 11 12 13 
 14 15 16 17 18 20 21 22 24 25 26 28 
 29 30 32 35 37 38 39 41 42 44 45 48 
 49 50 51 52 53 54 55 56 58 60 62 63 
 64 65 67 68 
 36 
 5 6 7 9 13 16 17 18 19 24 26 28 
 29 31 32 34 35 36 37 38 40 41 42 43 
 44 45 46 47 51 55 60 61 62 64 65 68 
 32 
 1 5 10 11 12 14 18 19 21 23 25 29 
 31 32 33 34 35 38 39 40 41 42 45 46 
 51 54 55 57 58 61 62 66 
 57 
 2 3 4 5 7 8 9 10 11 12 13 14 
 16 18 20 21 22 23 25 26 27 28 29 30 
 31 33 34 35 36 39 40 43 44 45 46 47 
 48 49 50 51 52 53 54 55 56 57 58 59 
 60 61 62 63 64 65 66 67 68 
 5 
 3 26 30 32 43 
 29 
 2 3 7 11 12 15 17 18 19 22 26 29 
 30 34 39 40 42 43 44 46 48 53 57 58 
 61 62 65 66 68 
 12 
 7 14 17 25 26 36 38 42 43 48 55 57 
 65 
 1 2 3 5 6 9 10 11 12 13 14 15 
 16 17 18 19 20 21 22 23 24 25 26 27 
 28 29 30 31 32 33 34 35 36 37 38 39 
 40 41 42 43 44 45 46 47 48 49 50 51 
 52 53 54 55 56 57 58 59 60 61 62 63 
 64 65 66 67 68 
 40 
 2 4 5 7 8 10 11 13 14 16 18 19 
 22 25 28 30 31 32 33 34 39 40 41 43 
 44 45 46 47 49 51 53 56 58 59 60 61 
 65 66 67 68 
 3 
 5 19 64 
 67 
 1 2 3 4 5 6 7 8 9 10 11 12 
 13 14 15 16 17 18 19 20 21 22 23 24 
 25 26 27 28 29 30 31 32 33 34 35 36 
 37 38 39 40 41 42 43 44 45 46 47 48 
 49 50 51 52 53 54 55 56 58 59 60 61 
 62 63 64 65 66 67 68 
 21 
 1 5 9 10 15 17 19 20 22 23 27 31 
 34 40 43 45 47 53 56 63 66 
 43 
 1 3 4 5 8 9 11 12 16 20 21 22 
 23 26 28 30 31 32 33 35 36 37 39 40 
 41 42 45 46 48 49 51 52 53 55 56 57 
 58 59 62 63 64 65 66 
 59 
 1 2 3 4 5 6 8 10 11 12 13 14 
 15 16 18 19 20 21 22 23 24 25 26 27 
 28 29 30 31 32 33 34 35 36 39 40 41 
 44 45 46 47 48 49 50 51 53 54 56 57 
 58 59 60 61 62 63 64 65 66 67 68 
 65 
 1 2 3 4 5 6 7 8 10 11 12 13 
 14 15 16 17 18 19 20 21 22 23 24 25 
 27 28 29 30 31 32 33 34 35 36 37 38 
 39 40 41 42 43 44 45 46 47 48 49 50 
 51 53 54 55 56 57 58 59 60 61 62 63 
 64 65 66 67 68 
 59 
 1 2 3 4 6 7 8 12 13 14 15 16 
 17 18 19 22 23 24 25 26 27 28 29 30 
 31 32 33 34 36 37 38 39 40 41 42 43 
 44 45 46 47 48 49 50 51 52 53 54 55 
 57 58 59 61 62 63 64 65 66 67 68 
 17 
 4 5 15 19 23 25 29 36 38 40 41 47 
 49 52 53 55 62 
 26 
 2 4 5 6 10 12 13 16 17 20 24 30 
 31 33 34 38 40 41 43 44 45 48 51 55 
 56 60 
 48 
 1 2 4 5 6 7 10 11 13 15 16 17 
 19 20 22 23 27 28 29 32 33 34 36 38 
 39 40 41 42 43 44 48 49 50 51 52 53 
 54 56 57 58 59 60 61 62 63 64 65 68 
 57 
 2 3 4 5 6 7 9 10 11 12 13 14 
 15 16 17 18 19 20 22 23 24 25 27 28 
 29 30 31 32 33 34 35 36 37 39 41 42 
 44 45 46 47 49 50 51 53 54 55 56 57 
 58 59 60 62 64 65 66 67 68 
 41 
 2 3 4 5 7 13 14 15 16 17 18 19 
 21 23 25 29 30 32 33 34 35 36 37 39 
 40 41 42 44 45 48 49 50 52 57 58 59 
 62 64 66 67 68 
 8 
 8 24 26 27 32 42 59 66 
 24 
 4 6 8 9 10 12 15 16 19 24 25 28 
 29 30 33 35 36 42 47 48 56 60 61 64 
 27 
 1 3 6 7 9 11 14 15 19 22 24 29 
 33 35 36 37 41 42 46 47 51 54 57 61 
 62 64 66 
 25 
 4 5 6 8 9 10 16 19 20 22 29 31 
 36 38 42 51 55 56 59 60 61 62 63 64 
 65 
 68 
 1 2 3 4 5 6 7 8 9 10 11 12 
 13 14 15 16 17 18 19 20 21 22 23 24 
 25 26 27 28 29 30 31 32 33 34 35 36 
 37 38 39 40 41 42 43 44 45 46 47 48 
 49 50 51 52 53 54 55 56 57 58 59 60 
 61 62 63 64 65 66 67 68 
 62 
 1 2 4 5 6 7 8 10 11 12 13 14 
 15 16 17 18 19 20 21 22 23 24 25 26 
 27 28 29 30 31 32 33 34 35 37 39 40 
 41 42 43 44 45 46 47 48 50 51 52 53 
 54 55 56 57 58 59 60 61 62 63 64 65 
 66 68 
 4 
 2 10 24 33 
 36 
 1 3 6 7 8 10 12 13 16 17 21 25 
 26 27 28 33 34 40 42 43 44 45 47 48 
 49 50 52 59 60 62 63 64 65 66 67 68 
 17 
 5 6 15 24 28 34 35 37 42 43 44 48 
 50 51 56 61 63 
 37 
 3 4 9 11 13 14 15 18 21 24 25 26 
 29 31 32 33 35 39 40 42 43 44 45 50 
 51 52 55 56 57 58 59 60 61 62 63 65 
 66 
 7 
 3 16 28 30 34 59 67 
 64 
 1 3 4 5 6 7 8 9 10 11 12 13 
 14 15 16 18 19 20 21 22 23 24 25 26 
 27 28 29 30 32 33 34 35 36 37 38 39 
 40 41 42 43 44 45 46 47 48 49 50 51 
 52 53 54 55 56 57 58 59 60 61 62 63 
 65 66 67 68 
 2 
 4 13 
 6 
 10 18 20 28 47 62 
 60 
 2 3 4 5 6 7 8 9 10 11 13 14 
 15 16 17 18 19 21 22 24 25 26 27 28 
 30 31 32 33 34 35 36 37 38 39 40 41 
 42 43 44 45 46 47 48 49 50 51 52 53 
 55 56 57 58 59 60 61 62 63 65 66 67 
 11 
 2 4 5 21 26 35 39 45 48 54 59 
 13 
 2 7 8 13 16 17 27 28 29 35 46 49 
 51 
 53 
 1 2 3 4 6 7 8 10 11 12 13 14 
 15 17 18 20 21 23 24 25 26 27 28 29 
 30 31 32 34 36 37 38 39 40 42 43 44 
 45 46 47 49 50 52 53 54 56 59 60 61 
 63 64 66 67 68 
 56 
 1 2 3 4 5 7 8 9 10 11 12 13 
 14 15 16 17 18 19 20 22 23 24 25 26 
 27 28 29 32 34 35 38 40 41 42 43 44 
 45 46 48 49 50 51 52 53 55 56 58 59 
 60 61 62 63 65 66 67 68 
 52 
 1 3 4 5 6 7 8 9 10 11 13 14 
 15 16 17 18 19 22 23 25 26 27 28 29 
 30 33 34 35 37 38 39 40 41 42 45 46 
 48 50 52 53 54 55 56 58 59 60 62 64 
 65 66 67 68 
 35 
 3 4 10 12 14 15 17 18 20 24 25 26 
 27 28 29 30 32 34 35 37 38 39 40 44 
 45 47 49 51 52 55 56 60 62 66 67 
 42 
 3 4 6 7 9 11 12 16 17 18 20 21 
 22 23 24 25 26 27 28 29 30 32 33 38 
 40 41 42 45 46 48 49 52 53 54 55 56 
 59 61 62 63 65 68 
 51 
 1 2 4 5 7 8 9 11 12 14 15 17 
 18 21 22 23 24 26 27 29 31 32 34 35 
 36 37 38 39 40 41 42 43 44 45 48 51 
 52 53 54 55 56 57 58 59 60 62 63 64 
 65 66 68 
 6 
 4 11 22 35 37 40 
 56 
 3 4 5 6 7 8 9 10 11 12 13 15 
 16 17 19 20 21 22 24 25 26 27 29 30 
 31 33 34 35 36 37 38 39 40 42 43 44 
 45 46 47 48 50 51 52 53 54 56 58 59 
 60 61 62 63 65 66 67 68 
 15 
 10 12 16 18 19 27 28 29 30 31 35 41 
 45 55 63 
 31 
 4 5 6 8 10 12 13 14 15 18 19 20 
 22 23 27 30 31 33 37 39 44 48 55 56 
 60 61 62 63 64 66 68 
 22 
 3 11 12 14 17 19 27 30 34 35 36 37 
 39 43 47 50 51 56 59 61 63 66 
 25 
 1 7 8 9 10 13 15 16 17 19 23 25 
 31 34 38 44 45 47 52 53 55 58 59 60 
 67 
 57 
 2 3 4 5 6 7 8 9 10 11 13 14 
 15 17 18 19 21 22 23 25 26 27 29 31 
 32 33 35 36 37 38 39 40 41 43 44 45 
 46 47 48 50 51 52 53 55 56 57 58 59 
 60 61 62 63 64 65 66 67 68 
 5 
 22 23 52 56 58 
 15 
 1 20 21 27 30 38 42 45 52 54 55 57 
 62 63 66 
 52 
 2 3 4 6 7 8 10 11 12 13 16 17 
 18 19 20 21 22 23 25 26 27 28 29 30 
 31 35 36 39 40 42 43 45 46 48 49 50 
 51 52 53 54 55 56 57 58 59 60 61 64 
 65 66 67 68 
 4 
 9 11 42 60 
 16 
 3 13 20 22 23 24 27 28 30 31 33 47 
 52 56 63 66 
 62 
 1 2 4 5 6 7 8 9 10 11 12 13 
 15 16 17 18 19 20 21 22 23 24 25 26 
 27 28 29 30 31 32 33 35 36 38 39 41 
 42 43 44 45 47 48 49 50 51 52 53 54 
 55 56 57 58 59 60 61 62 63 64 65 66 
 67 68 
 55 
 1 2 3 4 5 6 7 10 11 12 15 16 
 17 19 20 21 22 23 24 25 26 28 30 31 
 32 33 36 38 39 40 41 43 44 45 46 47 
 48 49 52 53 54 55 56 57 58 59 60 61 
 62 63 64 65 66 67 68 
 43 
 1 3 10 11 12 14 15 17 18 19 21 23 
 24 26 27 29 30 31 33 34 37 38 39 40 
 42 43 44 46 48 49 51 52 53 54 58 59 
 60 61 63 64 65 66 67 
 